language Essence 1.3

letting class be function(1 --> 2, 2 --> 1, 3 --> 1, 4 --> 4, 5 --> 5, 6 --> 3)
letting deck_length be 78
letting deck_width be 79
letting length be function(1 --> 30, 2 --> 51, 3 --> 28, 4 --> 14, 5 --> 76, 6 --> 1)
letting n_classes be 5
letting n_containers be 6
letting separation be function()
letting width be function(1 --> 2, 2 --> 22, 3 --> 1, 4 --> 1, 5 --> 33, 6 --> 11)
